c File: data_files/evolved_graphs/g3681.col
c
c Auto generated graph
c
p edge 100 1562
e 1 2
e 1 32
e 1 33
e 1 35
e 1 36
e 1 37
e 1 39
e 1 40
e 1 41
e 1 42
e 1 43
e 1 44
e 1 45
e 1 51
e 1 52
e 1 63
e 1 64
e 1 70
e 1 71
e 1 74
e 1 75
e 1 81
e 1 84
e 1 87
e 1 89
e 2 5
e 2 7
e 2 11
e 2 21
e 2 32
e 2 33
e 2 37
e 2 39
e 2 40
e 2 41
e 2 44
e 2 46
e 2 47
e 2 50
e 2 51
e 2 53
e 2 56
e 2 63
e 2 65
e 2 67
e 2 69
e 2 70
e 2 76
e 2 77
e 2 78
e 2 80
e 2 82
e 2 84
e 2 85
e 2 86
e 2 88
e 2 92
e 3 6
e 3 34
e 3 35
e 3 36
e 3 38
e 3 39
e 3 41
e 3 42
e 3 44
e 3 45
e 3 47
e 3 48
e 3 50
e 3 58
e 3 71
e 3 76
e 3 77
e 3 80
e 3 82
e 3 84
e 3 85
e 3 87
e 3 88
e 3 90
e 3 97
e 4 5
e 4 32
e 4 33
e 4 34
e 4 36
e 4 37
e 4 39
e 4 40
e 4 41
e 4 42
e 4 46
e 4 47
e 4 48
e 4 49
e 4 50
e 4 52
e 4 53
e 4 57
e 4 58
e 4 60
e 4 61
e 4 63
e 4 69
e 4 74
e 4 77
e 4 78
e 4 79
e 4 83
e 4 90
e 4 92
e 5 8
e 5 33
e 5 34
e 5 35
e 5 36
e 5 37
e 5 39
e 5 40
e 5 43
e 5 47
e 5 51
e 5 54
e 5 56
e 5 61
e 5 63
e 5 66
e 5 73
e 5 74
e 5 76
e 5 79
e 5 82
e 5 83
e 5 86
e 5 88
e 5 89
e 6 19
e 6 20
e 6 22
e 6 32
e 6 33
e 6 34
e 6 35
e 6 36
e 6 39
e 6 40
e 6 42
e 6 45
e 6 48
e 6 49
e 6 50
e 6 52
e 6 54
e 6 56
e 6 57
e 6 60
e 6 66
e 6 71
e 6 72
e 6 75
e 6 76
e 6 82
e 6 83
e 6 84
e 6 85
e 6 86
e 6 87
e 6 88
e 6 90
e 6 91
e 7 14
e 7 33
e 7 35
e 7 39
e 7 40
e 7 41
e 7 42
e 7 43
e 7 49
e 7 50
e 7 55
e 7 64
e 7 67
e 7 73
e 7 75
e 7 77
e 7 81
e 7 82
e 7 83
e 7 85
e 7 86
e 7 89
e 7 96
e 7 97
e 7 100
e 8 11
e 8 12
e 8 19
e 8 23
e 8 24
e 8 34
e 8 35
e 8 42
e 8 44
e 8 45
e 8 46
e 8 47
e 8 49
e 8 60
e 8 63
e 8 64
e 8 66
e 8 69
e 8 70
e 8 72
e 8 74
e 8 76
e 8 79
e 8 80
e 8 81
e 8 84
e 8 85
e 8 86
e 8 91
e 9 14
e 9 15
e 9 16
e 9 20
e 9 22
e 9 24
e 9 28
e 9 31
e 9 33
e 9 35
e 9 37
e 9 38
e 9 39
e 9 41
e 9 42
e 9 45
e 9 48
e 9 49
e 9 53
e 9 54
e 9 55
e 9 57
e 9 64
e 9 67
e 9 69
e 9 70
e 9 71
e 9 73
e 9 76
e 9 77
e 9 79
e 9 87
e 9 88
e 9 90
e 10 11
e 10 14
e 10 17
e 10 25
e 10 32
e 10 35
e 10 39
e 10 40
e 10 41
e 10 43
e 10 44
e 10 47
e 10 51
e 10 52
e 10 54
e 10 58
e 10 60
e 10 63
e 10 68
e 10 71
e 10 72
e 10 81
e 10 88
e 10 91
e 10 100
e 11 16
e 11 18
e 11 32
e 11 33
e 11 35
e 11 36
e 11 37
e 11 38
e 11 39
e 11 42
e 11 43
e 11 44
e 11 45
e 11 46
e 11 48
e 11 50
e 11 55
e 11 57
e 11 59
e 11 64
e 11 65
e 11 66
e 11 67
e 11 70
e 11 72
e 11 76
e 11 77
e 11 81
e 11 82
e 11 85
e 11 87
e 11 91
e 11 96
e 12 16
e 12 17
e 12 23
e 12 24
e 12 26
e 12 30
e 12 33
e 12 34
e 12 35
e 12 42
e 12 44
e 12 46
e 12 49
e 12 50
e 12 53
e 12 58
e 12 62
e 12 63
e 12 66
e 12 68
e 12 71
e 12 76
e 12 77
e 12 81
e 12 83
e 12 85
e 12 86
e 12 89
e 12 91
e 13 29
e 13 31
e 13 36
e 13 39
e 13 40
e 13 41
e 13 42
e 13 43
e 13 44
e 13 45
e 13 48
e 13 52
e 13 53
e 13 58
e 13 60
e 13 62
e 13 67
e 13 72
e 13 73
e 13 74
e 13 75
e 13 78
e 13 79
e 13 82
e 13 85
e 13 87
e 13 88
e 13 90
e 13 92
e 13 93
e 14 18
e 14 19
e 14 24
e 14 25
e 14 33
e 14 36
e 14 37
e 14 38
e 14 41
e 14 42
e 14 43
e 14 45
e 14 46
e 14 47
e 14 48
e 14 50
e 14 51
e 14 53
e 14 54
e 14 56
e 14 61
e 14 64
e 14 65
e 14 66
e 14 68
e 14 72
e 14 76
e 14 78
e 14 79
e 14 87
e 14 88
e 14 89
e 14 90
e 14 92
e 14 93
e 14 95
e 15 16
e 15 21
e 15 22
e 15 24
e 15 25
e 15 29
e 15 31
e 15 41
e 15 44
e 15 49
e 15 50
e 15 57
e 15 58
e 15 59
e 15 62
e 15 63
e 15 65
e 15 68
e 15 72
e 15 78
e 15 79
e 15 80
e 15 82
e 15 83
e 15 84
e 15 85
e 15 86
e 15 87
e 15 88
e 15 90
e 15 91
e 15 92
e 15 97
e 16 19
e 16 26
e 16 28
e 16 29
e 16 33
e 16 34
e 16 35
e 16 36
e 16 37
e 16 39
e 16 44
e 16 45
e 16 47
e 16 48
e 16 51
e 16 55
e 16 56
e 16 63
e 16 65
e 16 68
e 16 69
e 16 74
e 16 76
e 16 77
e 16 86
e 16 87
e 16 88
e 16 91
e 16 92
e 17 19
e 17 24
e 17 30
e 17 32
e 17 34
e 17 35
e 17 38
e 17 39
e 17 40
e 17 42
e 17 45
e 17 47
e 17 48
e 17 50
e 17 51
e 17 52
e 17 53
e 17 54
e 17 55
e 17 57
e 17 59
e 17 61
e 17 63
e 17 66
e 17 72
e 17 76
e 17 77
e 17 80
e 17 81
e 17 83
e 17 86
e 17 87
e 17 88
e 17 91
e 17 92
e 18 20
e 18 22
e 18 33
e 18 34
e 18 37
e 18 38
e 18 40
e 18 41
e 18 43
e 18 44
e 18 47
e 18 48
e 18 51
e 18 52
e 18 55
e 18 57
e 18 58
e 18 60
e 18 62
e 18 63
e 18 68
e 18 75
e 18 76
e 18 77
e 18 80
e 18 81
e 18 84
e 18 88
e 18 91
e 18 92
e 19 20
e 19 23
e 19 27
e 19 28
e 19 32
e 19 33
e 19 34
e 19 35
e 19 37
e 19 39
e 19 41
e 19 42
e 19 43
e 19 44
e 19 47
e 19 50
e 19 51
e 19 54
e 19 55
e 19 56
e 19 61
e 19 63
e 19 64
e 19 65
e 19 71
e 19 72
e 19 73
e 19 75
e 19 76
e 19 78
e 19 79
e 19 80
e 19 81
e 19 84
e 19 85
e 19 86
e 19 91
e 19 92
e 19 98
e 20 22
e 20 25
e 20 32
e 20 33
e 20 34
e 20 37
e 20 38
e 20 43
e 20 44
e 20 46
e 20 48
e 20 51
e 20 53
e 20 55
e 20 56
e 20 57
e 20 61
e 20 68
e 20 74
e 20 77
e 20 78
e 20 80
e 20 82
e 20 83
e 20 84
e 20 90
e 20 91
e 21 24
e 21 30
e 21 35
e 21 36
e 21 38
e 21 39
e 21 40
e 21 42
e 21 43
e 21 44
e 21 45
e 21 47
e 21 49
e 21 50
e 21 51
e 21 53
e 21 55
e 21 60
e 21 62
e 21 64
e 21 67
e 21 74
e 21 76
e 21 79
e 21 81
e 21 82
e 21 83
e 21 84
e 21 87
e 21 88
e 21 90
e 21 91
e 22 23
e 22 24
e 22 29
e 22 33
e 22 34
e 22 36
e 22 37
e 22 38
e 22 39
e 22 40
e 22 41
e 22 43
e 22 44
e 22 45
e 22 46
e 22 49
e 22 50
e 22 52
e 22 58
e 22 73
e 22 74
e 22 76
e 22 78
e 22 79
e 22 80
e 22 81
e 22 82
e 22 87
e 22 90
e 22 92
e 22 96
e 22 97
e 23 27
e 23 30
e 23 31
e 23 32
e 23 33
e 23 34
e 23 37
e 23 38
e 23 39
e 23 40
e 23 45
e 23 46
e 23 49
e 23 50
e 23 51
e 23 54
e 23 56
e 23 57
e 23 58
e 23 60
e 23 65
e 23 66
e 23 67
e 23 70
e 23 71
e 23 72
e 23 73
e 23 74
e 23 75
e 23 76
e 23 77
e 23 78
e 23 81
e 23 83
e 23 84
e 23 88
e 23 89
e 23 92
e 24 30
e 24 33
e 24 35
e 24 36
e 24 37
e 24 38
e 24 39
e 24 40
e 24 41
e 24 42
e 24 44
e 24 49
e 24 51
e 24 60
e 24 62
e 24 70
e 24 71
e 24 73
e 24 74
e 24 76
e 24 77
e 24 81
e 24 82
e 24 87
e 24 88
e 24 90
e 24 91
e 25 26
e 25 28
e 25 33
e 25 34
e 25 37
e 25 38
e 25 41
e 25 44
e 25 45
e 25 47
e 25 50
e 25 66
e 25 72
e 25 76
e 25 78
e 25 80
e 25 81
e 25 88
e 25 89
e 25 91
e 25 92
e 26 29
e 26 34
e 26 35
e 26 36
e 26 38
e 26 39
e 26 41
e 26 42
e 26 43
e 26 44
e 26 45
e 26 47
e 26 48
e 26 51
e 26 58
e 26 60
e 26 62
e 26 65
e 26 67
e 26 70
e 26 75
e 26 76
e 26 78
e 26 79
e 26 84
e 26 86
e 26 88
e 26 89
e 26 90
e 26 91
e 27 30
e 27 32
e 27 34
e 27 35
e 27 36
e 27 38
e 27 40
e 27 42
e 27 43
e 27 45
e 27 46
e 27 47
e 27 49
e 27 50
e 27 51
e 27 54
e 27 58
e 27 63
e 27 64
e 27 71
e 27 77
e 27 79
e 27 83
e 27 85
e 27 89
e 27 90
e 27 92
e 28 33
e 28 34
e 28 35
e 28 36
e 28 37
e 28 39
e 28 42
e 28 43
e 28 44
e 28 45
e 28 46
e 28 48
e 28 53
e 28 55
e 28 61
e 28 64
e 28 65
e 28 68
e 28 77
e 28 80
e 28 81
e 28 82
e 28 87
e 28 92
e 29 31
e 29 33
e 29 36
e 29 37
e 29 39
e 29 41
e 29 42
e 29 44
e 29 45
e 29 46
e 29 47
e 29 48
e 29 49
e 29 50
e 29 51
e 29 52
e 29 61
e 29 63
e 29 64
e 29 68
e 29 70
e 29 72
e 29 74
e 29 75
e 29 77
e 29 80
e 29 82
e 29 83
e 29 86
e 29 89
e 29 90
e 29 99
e 30 32
e 30 33
e 30 37
e 30 39
e 30 40
e 30 41
e 30 43
e 30 44
e 30 45
e 30 48
e 30 49
e 30 51
e 30 53
e 30 61
e 30 74
e 30 76
e 30 81
e 30 82
e 30 83
e 30 84
e 30 85
e 30 86
e 30 87
e 30 90
e 30 91
e 30 92
e 31 33
e 31 36
e 31 37
e 31 40
e 31 41
e 31 45
e 31 46
e 31 47
e 31 49
e 31 50
e 31 51
e 31 52
e 31 57
e 31 62
e 31 81
e 31 85
e 31 88
e 31 91
e 31 93
e 32 36
e 32 40
e 32 42
e 32 45
e 32 48
e 32 53
e 32 62
e 32 63
e 32 64
e 32 76
e 32 78
e 32 80
e 32 81
e 32 86
e 32 89
e 32 90
e 33 36
e 33 37
e 33 45
e 33 47
e 33 58
e 33 67
e 33 68
e 33 74
e 33 76
e 33 77
e 33 78
e 33 79
e 33 81
e 33 87
e 33 92
e 34 44
e 34 46
e 34 49
e 34 53
e 34 54
e 34 59
e 34 60
e 34 66
e 34 68
e 34 73
e 34 77
e 34 79
e 34 81
e 34 84
e 34 86
e 34 87
e 34 88
e 34 90
e 34 93
e 35 41
e 35 55
e 35 59
e 35 65
e 35 68
e 35 73
e 35 74
e 35 76
e 35 79
e 35 84
e 35 86
e 35 90
e 35 92
e 36 38
e 36 39
e 36 41
e 36 43
e 36 44
e 36 52
e 36 55
e 36 56
e 36 61
e 36 71
e 36 72
e 36 80
e 36 81
e 36 82
e 36 85
e 36 86
e 36 87
e 36 88
e 36 89
e 36 90
e 36 91
e 36 96
e 37 42
e 37 45
e 37 47
e 37 51
e 37 53
e 37 54
e 37 66
e 37 68
e 37 73
e 37 74
e 37 77
e 37 80
e 37 84
e 37 85
e 37 89
e 37 90
e 38 45
e 38 55
e 38 60
e 38 70
e 38 71
e 38 76
e 38 77
e 38 82
e 38 83
e 38 89
e 38 91
e 38 92
e 38 100
e 39 41
e 39 43
e 39 45
e 39 52
e 39 54
e 39 66
e 39 71
e 39 73
e 39 78
e 39 81
e 39 86
e 39 88
e 39 89
e 39 90
e 40 45
e 40 49
e 40 53
e 40 56
e 40 57
e 40 68
e 40 72
e 40 76
e 40 77
e 40 78
e 40 79
e 40 83
e 40 84
e 40 86
e 40 90
e 40 91
e 40 92
e 40 93
e 40 100
e 41 46
e 41 48
e 41 51
e 41 61
e 41 70
e 41 71
e 41 74
e 41 78
e 41 79
e 41 84
e 41 86
e 41 87
e 41 88
e 41 89
e 41 91
e 41 100
e 42 53
e 42 61
e 42 64
e 42 70
e 42 77
e 42 81
e 42 83
e 42 84
e 42 87
e 42 91
e 42 94
e 43 47
e 43 51
e 43 52
e 43 56
e 43 59
e 43 69
e 43 71
e 43 72
e 43 73
e 43 77
e 43 84
e 43 85
e 43 86
e 43 89
e 43 90
e 43 94
e 43 95
e 44 48
e 44 52
e 44 54
e 44 59
e 44 62
e 44 64
e 44 70
e 44 73
e 44 74
e 44 76
e 44 79
e 44 81
e 44 82
e 44 86
e 44 87
e 44 88
e 44 89
e 44 97
e 44 98
e 45 46
e 45 54
e 45 57
e 45 59
e 45 64
e 45 66
e 45 67
e 45 72
e 45 75
e 45 81
e 45 83
e 45 85
e 45 86
e 45 88
e 45 91
e 45 92
e 46 47
e 46 49
e 46 53
e 46 55
e 46 60
e 46 66
e 46 67
e 46 74
e 46 75
e 46 76
e 46 77
e 46 78
e 46 83
e 46 85
e 46 86
e 46 89
e 46 92
e 46 93
e 47 51
e 47 56
e 47 58
e 47 60
e 47 61
e 47 62
e 47 66
e 47 72
e 47 74
e 47 75
e 47 76
e 47 77
e 47 79
e 47 81
e 47 86
e 47 87
e 47 89
e 48 49
e 48 54
e 48 71
e 48 74
e 48 75
e 48 77
e 48 79
e 48 81
e 48 82
e 48 87
e 48 88
e 48 89
e 48 92
e 49 50
e 49 52
e 49 56
e 49 59
e 49 68
e 49 70
e 49 73
e 49 77
e 49 78
e 49 81
e 49 82
e 49 83
e 49 85
e 49 88
e 49 90
e 49 91
e 49 92
e 49 100
e 50 53
e 50 54
e 50 59
e 50 62
e 50 67
e 50 70
e 50 75
e 50 76
e 50 77
e 50 83
e 50 85
e 50 89
e 50 91
e 50 92
e 50 97
e 50 98
e 50 100
e 51 52
e 51 53
e 51 55
e 51 58
e 51 62
e 51 65
e 51 66
e 51 67
e 51 80
e 51 83
e 51 84
e 51 85
e 51 86
e 51 88
e 51 89
e 51 96
e 51 98
e 52 54
e 52 61
e 52 62
e 52 64
e 52 71
e 52 73
e 52 74
e 52 78
e 52 79
e 52 82
e 52 83
e 52 87
e 52 88
e 52 90
e 52 91
e 53 54
e 53 57
e 53 61
e 53 64
e 53 67
e 53 72
e 53 73
e 53 76
e 53 77
e 53 85
e 53 88
e 53 89
e 53 92
e 53 93
e 54 58
e 54 62
e 54 63
e 54 64
e 54 80
e 54 81
e 54 82
e 54 84
e 54 85
e 54 89
e 54 91
e 54 100
e 55 59
e 55 66
e 55 69
e 55 70
e 55 77
e 55 78
e 55 80
e 55 83
e 55 85
e 55 86
e 55 91
e 55 99
e 56 65
e 56 68
e 56 69
e 56 72
e 56 73
e 56 79
e 56 80
e 56 82
e 56 86
e 56 92
e 56 97
e 57 58
e 57 59
e 57 61
e 57 71
e 57 73
e 57 76
e 57 79
e 57 81
e 57 84
e 57 87
e 57 91
e 57 95
e 58 61
e 58 63
e 58 72
e 58 75
e 58 80
e 58 90
e 58 91
e 58 92
e 59 60
e 59 61
e 59 64
e 59 65
e 59 67
e 59 71
e 59 78
e 59 81
e 59 83
e 59 87
e 59 90
e 59 92
e 59 94
e 59 97
e 60 72
e 60 76
e 60 78
e 60 84
e 60 87
e 60 88
e 60 91
e 60 94
e 60 96
e 60 97
e 61 67
e 61 72
e 61 81
e 61 82
e 61 85
e 61 86
e 61 87
e 61 88
e 61 89
e 61 90
e 61 91
e 61 92
e 61 95
e 61 99
e 62 68
e 62 71
e 62 72
e 62 76
e 62 79
e 62 80
e 62 82
e 62 83
e 62 85
e 62 87
e 62 89
e 63 67
e 63 68
e 63 69
e 63 71
e 63 76
e 63 79
e 63 81
e 63 85
e 63 87
e 63 88
e 63 89
e 63 90
e 63 100
e 64 66
e 64 73
e 64 74
e 64 75
e 64 77
e 64 78
e 64 80
e 64 81
e 64 83
e 64 89
e 64 90
e 64 93
e 64 98
e 65 71
e 65 77
e 65 82
e 65 88
e 65 90
e 65 91
e 66 68
e 66 74
e 66 76
e 66 77
e 66 78
e 66 81
e 66 82
e 66 86
e 66 88
e 66 98
e 67 68
e 67 72
e 67 75
e 67 77
e 67 78
e 67 79
e 67 80
e 67 83
e 67 89
e 67 91
e 68 72
e 68 74
e 68 75
e 68 80
e 68 81
e 68 85
e 68 89
e 68 90
e 69 76
e 69 79
e 69 80
e 69 89
e 69 94
e 69 99
e 70 71
e 70 78
e 70 80
e 70 81
e 70 89
e 70 91
e 70 92
e 71 75
e 71 76
e 71 79
e 71 80
e 71 81
e 71 85
e 71 89
e 71 91
e 72 78
e 72 79
e 72 85
e 72 86
e 72 92
e 72 98
e 73 80
e 73 81
e 73 82
e 73 83
e 73 86
e 73 87
e 73 89
e 73 90
e 73 91
e 73 93
e 74 75
e 74 76
e 74 78
e 74 84
e 74 85
e 74 88
e 74 91
e 74 96
e 74 97
e 75 78
e 75 80
e 75 81
e 75 82
e 75 83
e 75 84
e 75 86
e 75 87
e 75 88
e 75 91
e 75 92
e 76 83
e 76 87
e 76 89
e 76 90
e 77 78
e 77 79
e 77 80
e 77 82
e 77 92
e 77 98
e 78 80
e 78 81
e 78 85
e 78 100
e 79 80
e 79 84
e 79 89
e 79 90
e 79 91
e 79 93
e 79 99
e 79 100
e 80 88
e 80 91
e 80 93
e 80 94
e 80 97
e 80 99
e 81 84
e 81 86
e 81 89
e 81 93
e 81 95
e 81 98
e 82 83
e 82 91
e 82 97
e 82 100
e 83 85
e 83 86
e 83 87
e 83 92
e 83 93
e 83 96
e 84 94
e 84 99
e 85 86
e 85 92
e 85 97
e 86 90
e 86 92
e 86 94
e 86 100
e 87 91
e 87 96
e 87 97
e 87 98
e 87 99
e 88 91
e 88 95
e 88 98
e 89 92
e 90 91
e 90 94
e 90 95
e 92 95
e 93 99
e 94 96
e 94 97
e 95 96
e 95 99
e 95 100
e 96 97
